677.11 0
0 35 50 11 1 22 14 15 20 29 28 45 31 12 18 26 67 68 55 46 24 16 44 39 17 40 5 7 51 43 4 25 3 59 9 10 61 32 8 64 54 48 62 13 19 60 42 37 66 6 52 38 36 41 53 58 49 21 27 30 56 23 2 65 33 69 34 63 47 57